\ This file has been generated by DOcplex
\ ENCODING=ISO-8859-1
\Problem name: random_problem.lp

Minimize
 obj: 42 x0 + 21 x1 + 18 x2 + 9 x3 + 36 x4 + 18 x5 + 562 x6 + 281 x7 + 230 x8
      + 115 x9 - 88 x10 - 44 x11 + [ 1144 x0^2 + 1144 x0*x1 + 768 x0*x2
      + 384 x0*x3 + 640 x0*x4 + 320 x0*x5 + 400 x0*x6 + 200 x0*x7 + 896 x0*x8
      + 448 x0*x9 + 768 x0*x10 + 384 x0*x11 + 286 x1^2 + 384 x1*x2 + 192 x1*x3
      + 320 x1*x4 + 160 x1*x5 + 200 x1*x6 + 100 x1*x7 + 448 x1*x8 + 224 x1*x9
      + 384 x1*x10 + 192 x1*x11 + 832 x2^2 + 832 x2*x3 + 928 x2*x4 + 464 x2*x5
      + 368 x2*x6 + 184 x2*x7 + 704 x2*x8 + 352 x2*x9 + 944 x2*x10 + 472 x2*x11
      + 208 x3^2 + 464 x3*x4 + 232 x3*x5 + 184 x3*x6 + 92 x3*x7 + 352 x3*x8
      + 176 x3*x9 + 472 x3*x10 + 236 x3*x11 + 712 x4^2 + 712 x4*x5 + 576 x4*x6
      + 288 x4*x7 + 1248 x4*x8 + 624 x4*x9 + 1184 x4*x10 + 592 x4*x11 + 178 x5^2
      + 288 x5*x6 + 144 x5*x7 + 624 x5*x8 + 312 x5*x9 + 592 x5*x10 + 296 x5*x11
      + 608 x6^2 + 608 x6*x7 + 640 x6*x8 + 320 x6*x9 + 560 x6*x10 + 280 x6*x11
      + 152 x7^2 + 320 x7*x8 + 160 x7*x9 + 280 x7*x10 + 140 x7*x11 + 1000 x8^2
      + 1000 x8*x9 + 1184 x8*x10 + 592 x8*x11 + 250 x9^2 + 592 x9*x10
      + 296 x9*x11 + 944 x10^2 + 944 x10*x11 + 236 x11^2 ]/2
Subject To
 c0: 2 x0 + x1 + 2 x2 + x3 + 2 x4 + x5 + 2 x6 + x7 + 2 x8 + x9 + 2 x10 + x11 = 
     3

Bounds
 0 <= x0 <= 1
 0 <= x1 <= 1
 0 <= x2 <= 1
 0 <= x3 <= 1
 0 <= x4 <= 1
 0 <= x5 <= 1
 0 <= x6 <= 1
 0 <= x7 <= 1
 0 <= x8 <= 1
 0 <= x9 <= 1
 0 <= x10 <= 1
 0 <= x11 <= 1

Binaries
 x0 x1 x2 x3 x4 x5 x6 x7 x8 x9 x10 x11
End
